NAME: X480-FSMD
COMMENT: Generated by Uchoa, Pecin, Pessoa, Poggi, Subramanian, and Vidal (2013). Modified by Sadykov, Pessoa and Uchoa (2017). Converted to PyVRP's VRPLIB dialect.
TYPE: HFVRP
DIMENSION: 480
VEHICLES: 1437
EDGE_WEIGHT_TYPE: EUC_2D
NODE_COORD_SECTION
1	628	103
2	291	573
3	129	447
4	973	643
5	830	868
6	398	563
7	731	423
8	201	995
9	167	174
10	31	358
11	480	619
12	323	555
13	205	208
14	187	767
15	775	445
16	745	369
17	188	965
18	44	585
19	405	706
20	185	315
21	505	636
22	482	543
23	830	860
24	344	498
25	762	379
26	761	399
27	869	844
28	114	420
29	890	491
30	440	802
31	929	676
32	524	456
33	361	434
34	377	478
35	191	496
36	646	352
37	795	962
38	483	492
39	174	597
40	208	464
41	693	461
42	56	114
43	877	898
44	483	596
45	757	915
46	833	803
47	676	597
48	818	695
49	494	648
50	5	167
51	197	146
52	170	313
53	354	624
54	603	437
55	773	462
56	386	610
57	75	183
58	442	485
59	269	543
60	770	869
61	342	542
62	103	508
63	799	441
64	935	918
65	790	696
66	857	459
67	319	541
68	195	131
69	328	617
70	297	697
71	337	529
72	337	620
73	152	735
74	302	491
75	229	909
76	508	567
77	940	591
78	490	571
79	262	962
80	818	425
81	357	82
82	743	377
83	927	322
84	335	633
85	725	477
86	839	403
87	333	557
88	421	589
89	515	601
90	791	669
91	935	639
92	314	623
93	238	198
94	1000	656
95	613	387
96	425	544
97	299	730
98	359	986
99	107	394
100	766	513
101	409	500
102	144	441
103	163	479
104	400	560
105	198	506
106	176	926
107	763	458
108	761	982
109	986	312
110	94	492
111	183	372
112	383	562
113	384	366
114	204	147
115	373	443
116	231	359
117	340	551
118	751	545
119	232	198
120	271	629
121	139	319
122	305	521
123	370	556
124	273	895
125	466	566
126	865	654
127	869	910
128	216	415
129	41	244
130	304	153
131	97	186
132	368	504
133	194	925
134	254	246
135	766	440
136	212	535
137	492	471
138	314	590
139	153	22
140	235	976
141	70	484
142	748	521
143	675	415
144	705	421
145	267	658
146	471	562
147	870	876
148	24	331
149	882	865
150	864	841
151	730	459
152	734	383
153	200	392
154	367	641
155	966	646
156	856	722
157	336	971
158	191	969
159	898	763
160	857	790
161	206	143
162	682	258
163	230	771
164	745	394
165	692	452
166	395	437
167	503	642
168	326	565
169	888	761
170	134	223
171	300	695
172	423	593
173	204	516
174	158	441
175	133	604
176	140	79
177	673	529
178	788	909
179	954	788
180	843	989
181	145	278
182	764	881
183	125	504
184	301	977
185	540	385
186	92	399
187	192	176
188	169	888
189	101	564
190	506	603
191	137	584
192	121	451
193	802	286
194	229	981
195	706	365
196	761	741
197	70	415
198	198	502
199	142	323
200	839	888
201	772	526
202	237	235
203	308	579
204	791	283
205	801	882
206	873	368
207	977	606
208	514	594
209	123	227
210	848	261
211	603	508
212	128	454
213	283	535
214	934	787
215	868	930
216	181	618
217	904	440
218	140	672
219	181	689
220	587	479
221	451	745
222	402	34
223	962	687
224	776	972
225	223	915
226	242	683
227	149	353
228	831	873
229	332	672
230	44	546
231	754	940
232	197	971
233	872	879
234	63	283
235	119	398
236	211	995
237	819	887
238	296	542
239	596	153
240	916	873
241	239	931
242	830	971
243	837	887
244	107	365
245	774	369
246	933	612
247	312	807
248	905	557
249	768	692
250	761	420
251	812	621
252	350	667
253	150	393
254	407	490
255	806	935
256	646	471
257	286	627
258	774	888
259	440	615
260	204	991
261	117	90
262	277	979
263	840	813
264	313	708
265	882	881
266	234	889
267	257	56
268	224	516
269	349	921
270	214	144
271	382	283
272	826	883
273	967	562
274	763	487
275	341	554
276	61	494
277	329	948
278	220	601
279	160	538
280	217	126
281	837	636
282	949	661
283	931	987
284	6	436
285	934	726
286	154	327
287	98	361
288	399	584
289	759	634
290	680	453
291	869	362
292	232	538
293	126	636
294	847	860
295	834	503
296	164	447
297	330	175
298	163	242
299	97	651
300	139	530
301	921	868
302	48	486
303	38	202
304	134	708
305	717	846
306	640	705
307	305	727
308	197	891
309	460	573
310	387	417
311	382	519
312	124	241
313	803	815
314	757	597
315	356	411
316	352	846
317	112	299
318	916	589
319	150	952
320	170	391
321	68	410
322	100	500
323	958	616
324	205	147
325	654	402
326	981	766
327	138	584
328	216	332
329	186	443
330	671	534
331	160	475
332	104	159
333	240	951
334	161	74
335	403	437
336	456	327
337	172	247
338	417	601
339	490	600
340	23	319
341	254	376
342	160	152
343	855	778
344	159	149
345	228	636
346	169	168
347	274	684
348	176	108
349	770	337
350	261	226
351	345	615
352	297	588
353	888	1000
354	989	575
355	736	422
356	292	17
357	893	829
358	221	975
359	139	252
360	372	588
361	854	612
362	814	849
363	431	513
364	292	780
365	817	382
366	209	252
367	369	460
368	4	252
369	114	48
370	364	113
371	932	709
372	468	470
373	851	660
374	774	798
375	526	611
376	202	136
377	993	516
378	228	142
379	370	528
380	327	636
381	134	190
382	988	634
383	310	663
384	960	699
385	989	609
386	332	575
387	114	199
388	22	461
389	986	630
390	233	947
391	198	981
392	599	858
393	47	518
394	616	451
395	153	358
396	284	599
397	440	645
398	825	894
399	229	186
400	142	637
401	77	417
402	368	714
403	234	547
404	224	194
405	228	763
406	839	860
407	170	453
408	141	55
409	395	569
410	124	795
411	784	319
412	367	655
413	241	949
414	265	609
415	309	109
416	579	588
417	968	971
418	374	588
419	953	903
420	268	995
421	101	427
422	434	539
423	874	663
424	340	555
425	265	215
426	169	312
427	845	973
428	240	670
429	758	336
430	287	585
431	258	525
432	794	253
433	726	382
434	487	551
435	592	837
436	279	547
437	820	692
438	926	852
439	991	659
440	478	410
441	443	568
442	625	630
443	128	364
444	577	761
445	379	548
446	999	672
447	863	505
448	178	937
449	364	490
450	160	197
451	186	335
452	757	408
453	240	154
454	497	647
455	322	484
456	768	833
457	392	601
458	355	536
459	414	573
460	349	615
461	367	682
462	358	552
463	78	516
464	743	601
465	766	516
466	835	509
467	823	812
468	141	474
469	446	325
470	415	483
471	303	134
472	311	526
473	791	365
474	951	686
475	298	520
476	140	179
477	848	729
478	315	451
479	160	413
480	341	997
DEMAND_SECTION
1	0
2	6
3	7
4	9
5	7
6	10
7	10
8	7
9	6
10	6
11	8
12	6
13	5
14	10
15	8
16	9
17	9
18	10
19	6
20	9
21	10
22	9
23	6
24	10
25	7
26	9
27	5
28	8
29	6
30	8
31	6
32	9
33	6
34	9
35	7
36	8
37	9
38	10
39	5
40	10
41	10
42	5
43	7
44	8
45	8
46	7
47	7
48	5
49	8
50	8
51	9
52	7
53	9
54	7
55	8
56	9
57	6
58	6
59	10
60	8
61	7
62	8
63	9
64	10
65	5
66	10
67	6
68	8
69	10
70	8
71	9
72	9
73	6
74	8
75	5
76	9
77	5
78	9
79	6
80	5
81	5
82	9
83	8
84	8
85	6
86	10
87	10
88	8
89	10
90	10
91	9
92	5
93	8
94	7
95	10
96	6
97	5
98	6
99	8
100	7
101	6
102	5
103	5
104	5
105	6
106	9
107	9
108	8
109	10
110	7
111	9
112	7
113	5
114	9
115	9
116	6
117	8
118	5
119	5
120	8
121	10
122	7
123	7
124	6
125	7
126	10
127	9
128	5
129	10
130	6
131	9
132	7
133	10
134	7
135	5
136	7
137	9
138	10
139	6
140	10
141	7
142	6
143	8
144	8
145	6
146	8
147	5
148	7
149	10
150	7
151	7
152	6
153	7
154	6
155	5
156	5
157	10
158	6
159	6
160	9
161	7
162	10
163	9
164	5
165	7
166	10
167	10
168	5
169	6
170	9
171	9
172	9
173	10
174	9
175	10
176	9
177	6
178	8
179	9
180	9
181	8
182	10
183	7
184	10
185	9
186	6
187	8
188	5
189	8
190	9
191	8
192	9
193	5
194	8
195	9
196	8
197	10
198	8
199	6
200	7
201	9
202	6
203	5
204	9
205	8
206	10
207	9
208	7
209	5
210	8
211	9
212	7
213	10
214	8
215	9
216	5
217	10
218	10
219	5
220	8
221	8
222	8
223	7
224	7
225	5
226	5
227	7
228	9
229	9
230	9
231	8
232	5
233	10
234	9
235	7
236	6
237	8
238	10
239	6
240	10
241	8
242	6
243	5
244	5
245	5
246	10
247	9
248	6
249	10
250	5
251	8
252	5
253	5
254	9
255	7
256	5
257	10
258	5
259	10
260	7
261	5
262	7
263	7
264	6
265	8
266	10
267	10
268	9
269	7
270	9
271	10
272	9
273	6
274	6
275	10
276	9
277	8
278	10
279	5
280	8
281	5
282	6
283	6
284	10
285	8
286	7
287	10
288	7
289	7
290	5
291	8
292	8
293	6
294	10
295	7
296	7
297	8
298	8
299	7
300	7
301	7
302	10
303	8
304	6
305	5
306	5
307	6
308	7
309	8
310	8
311	7
312	8
313	8
314	6
315	9
316	8
317	6
318	10
319	8
320	8
321	7
322	10
323	10
324	6
325	7
326	6
327	5
328	10
329	8
330	5
331	10
332	10
333	8
334	6
335	8
336	10
337	10
338	8
339	10
340	9
341	6
342	6
343	5
344	9
345	10
346	7
347	8
348	6
349	6
350	6
351	10
352	6
353	9
354	6
355	7
356	5
357	5
358	8
359	10
360	6
361	8
362	8
363	9
364	7
365	7
366	5
367	8
368	6
369	6
370	6
371	6
372	5
373	10
374	5
375	8
376	7
377	5
378	10
379	7
380	9
381	5
382	8
383	6
384	7
385	6
386	8
387	10
388	5
389	8
390	5
391	6
392	10
393	5
394	6
395	8
396	9
397	5
398	7
399	10
400	7
401	5
402	10
403	10
404	10
405	5
406	5
407	8
408	5
409	8
410	10
411	8
412	5
413	10
414	5
415	7
416	9
417	7
418	8
419	8
420	6
421	10
422	10
423	10
424	5
425	10
426	5
427	8
428	9
429	10
430	8
431	6
432	10
433	5
434	5
435	6
436	6
437	9
438	8
439	8
440	10
441	8
442	6
443	9
444	10
445	5
446	10
447	10
448	9
449	6
450	5
451	5
452	6
453	7
454	6
455	7
456	6
457	5
458	7
459	9
460	6
461	6
462	8
463	5
464	5
465	6
466	7
467	6
468	5
469	6
470	8
471	5
472	8
473	8
474	8
475	6
476	7
477	10
478	6
479	5
480	8
CAPACITY_SECTION
1	22
2	22
3	22
4	22
5	22
6	22
7	22
8	22
9	22
10	22
11	22
12	22
13	22
14	22
15	22
16	22
17	22
18	22
19	22
20	22
21	22
22	22
23	22
24	22
25	22
26	22
27	22
28	22
29	22
30	22
31	22
32	22
33	22
34	22
35	22
36	22
37	22
38	22
39	22
40	22
41	22
42	22
43	22
44	22
45	22
46	22
47	22
48	22
49	22
50	22
51	22
52	22
53	22
54	22
55	22
56	22
57	22
58	22
59	22
60	22
61	22
62	22
63	22
64	22
65	22
66	22
67	22
68	22
69	22
70	22
71	22
72	22
73	22
74	22
75	22
76	22
77	22
78	22
79	22
80	22
81	22
82	22
83	22
84	22
85	22
86	22
87	22
88	22
89	22
90	22
91	22
92	22
93	22
94	22
95	22
96	22
97	22
98	22
99	22
100	22
101	22
102	22
103	22
104	22
105	22
106	22
107	22
108	22
109	22
110	22
111	22
112	22
113	22
114	22
115	22
116	22
117	22
118	22
119	22
120	22
121	22
122	22
123	22
124	22
125	22
126	22
127	22
128	22
129	22
130	22
131	22
132	22
133	22
134	22
135	22
136	22
137	22
138	22
139	22
140	22
141	22
142	22
143	22
144	22
145	22
146	22
147	22
148	22
149	22
150	22
151	22
152	22
153	22
154	22
155	22
156	22
157	22
158	22
159	22
160	22
161	22
162	22
163	22
164	22
165	22
166	22
167	22
168	22
169	22
170	22
171	22
172	22
173	22
174	22
175	22
176	22
177	22
178	22
179	22
180	22
181	22
182	22
183	22
184	22
185	22
186	22
187	22
188	22
189	22
190	22
191	22
192	22
193	22
194	22
195	22
196	22
197	22
198	22
199	22
200	22
201	22
202	22
203	22
204	22
205	22
206	22
207	22
208	22
209	22
210	22
211	22
212	22
213	22
214	22
215	22
216	22
217	22
218	22
219	22
220	22
221	22
222	22
223	22
224	22
225	22
226	22
227	22
228	22
229	22
230	22
231	22
232	22
233	22
234	22
235	22
236	22
237	22
238	22
239	22
240	22
241	22
242	22
243	22
244	22
245	22
246	22
247	22
248	22
249	22
250	22
251	22
252	22
253	22
254	22
255	22
256	22
257	22
258	22
259	22
260	22
261	22
262	22
263	22
264	22
265	22
266	22
267	22
268	22
269	22
270	22
271	22
272	22
273	22
274	22
275	22
276	22
277	22
278	22
279	22
280	22
281	22
282	22
283	22
284	22
285	22
286	22
287	22
288	22
289	22
290	22
291	22
292	22
293	22
294	22
295	22
296	22
297	22
298	22
299	22
300	22
301	22
302	22
303	22
304	22
305	22
306	22
307	22
308	22
309	22
310	22
311	22
312	22
313	22
314	22
315	22
316	22
317	22
318	22
319	22
320	22
321	22
322	22
323	22
324	22
325	22
326	22
327	22
328	22
329	22
330	22
331	22
332	22
333	22
334	22
335	22
336	22
337	22
338	22
339	22
340	22
341	22
342	22
343	22
344	22
345	22
346	22
347	22
348	22
349	22
350	22
351	22
352	22
353	22
354	22
355	22
356	22
357	22
358	22
359	22
360	22
361	22
362	22
363	22
364	22
365	22
366	22
367	22
368	22
369	22
370	22
371	22
372	22
373	22
374	22
375	22
376	22
377	22
378	22
379	22
380	22
381	22
382	22
383	22
384	22
385	22
386	22
387	22
388	22
389	22
390	22
391	22
392	22
393	22
394	22
395	22
396	22
397	22
398	22
399	22
400	22
401	22
402	22
403	22
404	22
405	22
406	22
407	22
408	22
409	22
410	22
411	22
412	22
413	22
414	22
415	22
416	22
417	22
418	22
419	22
420	22
421	22
422	22
423	22
424	22
425	22
426	22
427	22
428	22
429	22
430	22
431	22
432	22
433	22
434	22
435	22
436	22
437	22
438	22
439	22
440	22
441	22
442	22
443	22
444	22
445	22
446	22
447	22
448	22
449	22
450	22
451	22
452	22
453	22
454	22
455	22
456	22
457	22
458	22
459	22
460	22
461	22
462	22
463	22
464	22
465	22
466	22
467	22
468	22
469	22
470	22
471	22
472	22
473	22
474	22
475	22
476	22
477	22
478	22
479	22
480	45
481	45
482	45
483	45
484	45
485	45
486	45
487	45
488	45
489	45
490	45
491	45
492	45
493	45
494	45
495	45
496	45
497	45
498	45
499	45
500	45
501	45
502	45
503	45
504	45
505	45
506	45
507	45
508	45
509	45
510	45
511	45
512	45
513	45
514	45
515	45
516	45
517	45
518	45
519	45
520	45
521	45
522	45
523	45
524	45
525	45
526	45
527	45
528	45
529	45
530	45
531	45
532	45
533	45
534	45
535	45
536	45
537	45
538	45
539	45
540	45
541	45
542	45
543	45
544	45
545	45
546	45
547	45
548	45
549	45
550	45
551	45
552	45
553	45
554	45
555	45
556	45
557	45
558	45
559	45
560	45
561	45
562	45
563	45
564	45
565	45
566	45
567	45
568	45
569	45
570	45
571	45
572	45
573	45
574	45
575	45
576	45
577	45
578	45
579	45
580	45
581	45
582	45
583	45
584	45
585	45
586	45
587	45
588	45
589	45
590	45
591	45
592	45
593	45
594	45
595	45
596	45
597	45
598	45
599	45
600	45
601	45
602	45
603	45
604	45
605	45
606	45
607	45
608	45
609	45
610	45
611	45
612	45
613	45
614	45
615	45
616	45
617	45
618	45
619	45
620	45
621	45
622	45
623	45
624	45
625	45
626	45
627	45
628	45
629	45
630	45
631	45
632	45
633	45
634	45
635	45
636	45
637	45
638	45
639	45
640	45
641	45
642	45
643	45
644	45
645	45
646	45
647	45
648	45
649	45
650	45
651	45
652	45
653	45
654	45
655	45
656	45
657	45
658	45
659	45
660	45
661	45
662	45
663	45
664	45
665	45
666	45
667	45
668	45
669	45
670	45
671	45
672	45
673	45
674	45
675	45
676	45
677	45
678	45
679	45
680	45
681	45
682	45
683	45
684	45
685	45
686	45
687	45
688	45
689	45
690	45
691	45
692	45
693	45
694	45
695	45
696	45
697	45
698	45
699	45
700	45
701	45
702	45
703	45
704	45
705	45
706	45
707	45
708	45
709	45
710	45
711	45
712	45
713	45
714	45
715	45
716	45
717	45
718	45
719	45
720	45
721	45
722	45
723	45
724	45
725	45
726	45
727	45
728	45
729	45
730	45
731	45
732	45
733	45
734	45
735	45
736	45
737	45
738	45
739	45
740	45
741	45
742	45
743	45
744	45
745	45
746	45
747	45
748	45
749	45
750	45
751	45
752	45
753	45
754	45
755	45
756	45
757	45
758	45
759	45
760	45
761	45
762	45
763	45
764	45
765	45
766	45
767	45
768	45
769	45
770	45
771	45
772	45
773	45
774	45
775	45
776	45
777	45
778	45
779	45
780	45
781	45
782	45
783	45
784	45
785	45
786	45
787	45
788	45
789	45
790	45
791	45
792	45
793	45
794	45
795	45
796	45
797	45
798	45
799	45
800	45
801	45
802	45
803	45
804	45
805	45
806	45
807	45
808	45
809	45
810	45
811	45
812	45
813	45
814	45
815	45
816	45
817	45
818	45
819	45
820	45
821	45
822	45
823	45
824	45
825	45
826	45
827	45
828	45
829	45
830	45
831	45
832	45
833	45
834	45
835	45
836	45
837	45
838	45
839	45
840	45
841	45
842	45
843	45
844	45
845	45
846	45
847	45
848	45
849	45
850	45
851	45
852	45
853	45
854	45
855	45
856	45
857	45
858	45
859	45
860	45
861	45
862	45
863	45
864	45
865	45
866	45
867	45
868	45
869	45
870	45
871	45
872	45
873	45
874	45
875	45
876	45
877	45
878	45
879	45
880	45
881	45
882	45
883	45
884	45
885	45
886	45
887	45
888	45
889	45
890	45
891	45
892	45
893	45
894	45
895	45
896	45
897	45
898	45
899	45
900	45
901	45
902	45
903	45
904	45
905	45
906	45
907	45
908	45
909	45
910	45
911	45
912	45
913	45
914	45
915	45
916	45
917	45
918	45
919	45
920	45
921	45
922	45
923	45
924	45
925	45
926	45
927	45
928	45
929	45
930	45
931	45
932	45
933	45
934	45
935	45
936	45
937	45
938	45
939	45
940	45
941	45
942	45
943	45
944	45
945	45
946	45
947	45
948	45
949	45
950	45
951	45
952	45
953	45
954	45
955	45
956	45
957	45
958	45
959	89
960	89
961	89
962	89
963	89
964	89
965	89
966	89
967	89
968	89
969	89
970	89
971	89
972	89
973	89
974	89
975	89
976	89
977	89
978	89
979	89
980	89
981	89
982	89
983	89
984	89
985	89
986	89
987	89
988	89
989	89
990	89
991	89
992	89
993	89
994	89
995	89
996	89
997	89
998	89
999	89
1000	89
1001	89
1002	89
1003	89
1004	89
1005	89
1006	89
1007	89
1008	89
1009	89
1010	89
1011	89
1012	89
1013	89
1014	89
1015	89
1016	89
1017	89
1018	89
1019	89
1020	89
1021	89
1022	89
1023	89
1024	89
1025	89
1026	89
1027	89
1028	89
1029	89
1030	89
1031	89
1032	89
1033	89
1034	89
1035	89
1036	89
1037	89
1038	89
1039	89
1040	89
1041	89
1042	89
1043	89
1044	89
1045	89
1046	89
1047	89
1048	89
1049	89
1050	89
1051	89
1052	89
1053	89
1054	89
1055	89
1056	89
1057	89
1058	89
1059	89
1060	89
1061	89
1062	89
1063	89
1064	89
1065	89
1066	89
1067	89
1068	89
1069	89
1070	89
1071	89
1072	89
1073	89
1074	89
1075	89
1076	89
1077	89
1078	89
1079	89
1080	89
1081	89
1082	89
1083	89
1084	89
1085	89
1086	89
1087	89
1088	89
1089	89
1090	89
1091	89
1092	89
1093	89
1094	89
1095	89
1096	89
1097	89
1098	89
1099	89
1100	89
1101	89
1102	89
1103	89
1104	89
1105	89
1106	89
1107	89
1108	89
1109	89
1110	89
1111	89
1112	89
1113	89
1114	89
1115	89
1116	89
1117	89
1118	89
1119	89
1120	89
1121	89
1122	89
1123	89
1124	89
1125	89
1126	89
1127	89
1128	89
1129	89
1130	89
1131	89
1132	89
1133	89
1134	89
1135	89
1136	89
1137	89
1138	89
1139	89
1140	89
1141	89
1142	89
1143	89
1144	89
1145	89
1146	89
1147	89
1148	89
1149	89
1150	89
1151	89
1152	89
1153	89
1154	89
1155	89
1156	89
1157	89
1158	89
1159	89
1160	89
1161	89
1162	89
1163	89
1164	89
1165	89
1166	89
1167	89
1168	89
1169	89
1170	89
1171	89
1172	89
1173	89
1174	89
1175	89
1176	89
1177	89
1178	89
1179	89
1180	89
1181	89
1182	89
1183	89
1184	89
1185	89
1186	89
1187	89
1188	89
1189	89
1190	89
1191	89
1192	89
1193	89
1194	89
1195	89
1196	89
1197	89
1198	89
1199	89
1200	89
1201	89
1202	89
1203	89
1204	89
1205	89
1206	89
1207	89
1208	89
1209	89
1210	89
1211	89
1212	89
1213	89
1214	89
1215	89
1216	89
1217	89
1218	89
1219	89
1220	89
1221	89
1222	89
1223	89
1224	89
1225	89
1226	89
1227	89
1228	89
1229	89
1230	89
1231	89
1232	89
1233	89
1234	89
1235	89
1236	89
1237	89
1238	89
1239	89
1240	89
1241	89
1242	89
1243	89
1244	89
1245	89
1246	89
1247	89
1248	89
1249	89
1250	89
1251	89
1252	89
1253	89
1254	89
1255	89
1256	89
1257	89
1258	89
1259	89
1260	89
1261	89
1262	89
1263	89
1264	89
1265	89
1266	89
1267	89
1268	89
1269	89
1270	89
1271	89
1272	89
1273	89
1274	89
1275	89
1276	89
1277	89
1278	89
1279	89
1280	89
1281	89
1282	89
1283	89
1284	89
1285	89
1286	89
1287	89
1288	89
1289	89
1290	89
1291	89
1292	89
1293	89
1294	89
1295	89
1296	89
1297	89
1298	89
1299	89
1300	89
1301	89
1302	89
1303	89
1304	89
1305	89
1306	89
1307	89
1308	89
1309	89
1310	89
1311	89
1312	89
1313	89
1314	89
1315	89
1316	89
1317	89
1318	89
1319	89
1320	89
1321	89
1322	89
1323	89
1324	89
1325	89
1326	89
1327	89
1328	89
1329	89
1330	89
1331	89
1332	89
1333	89
1334	89
1335	89
1336	89
1337	89
1338	89
1339	89
1340	89
1341	89
1342	89
1343	89
1344	89
1345	89
1346	89
1347	89
1348	89
1349	89
1350	89
1351	89
1352	89
1353	89
1354	89
1355	89
1356	89
1357	89
1358	89
1359	89
1360	89
1361	89
1362	89
1363	89
1364	89
1365	89
1366	89
1367	89
1368	89
1369	89
1370	89
1371	89
1372	89
1373	89
1374	89
1375	89
1376	89
1377	89
1378	89
1379	89
1380	89
1381	89
1382	89
1383	89
1384	89
1385	89
1386	89
1387	89
1388	89
1389	89
1390	89
1391	89
1392	89
1393	89
1394	89
1395	89
1396	89
1397	89
1398	89
1399	89
1400	89
1401	89
1402	89
1403	89
1404	89
1405	89
1406	89
1407	89
1408	89
1409	89
1410	89
1411	89
1412	89
1413	89
1414	89
1415	89
1416	89
1417	89
1418	89
1419	89
1420	89
1421	89
1422	89
1423	89
1424	89
1425	89
1426	89
1427	89
1428	89
1429	89
1430	89
1431	89
1432	89
1433	89
1434	89
1435	89
1436	89
1437	89
VEHICLES_UNIT_DISTANCE_COST_SECTION
1	50
2	50
3	50
4	50
5	50
6	50
7	50
8	50
9	50
10	50
11	50
12	50
13	50
14	50
15	50
16	50
17	50
18	50
19	50
20	50
21	50
22	50
23	50
24	50
25	50
26	50
27	50
28	50
29	50
30	50
31	50
32	50
33	50
34	50
35	50
36	50
37	50
38	50
39	50
40	50
41	50
42	50
43	50
44	50
45	50
46	50
47	50
48	50
49	50
50	50
51	50
52	50
53	50
54	50
55	50
56	50
57	50
58	50
59	50
60	50
61	50
62	50
63	50
64	50
65	50
66	50
67	50
68	50
69	50
70	50
71	50
72	50
73	50
74	50
75	50
76	50
77	50
78	50
79	50
80	50
81	50
82	50
83	50
84	50
85	50
86	50
87	50
88	50
89	50
90	50
91	50
92	50
93	50
94	50
95	50
96	50
97	50
98	50
99	50
100	50
101	50
102	50
103	50
104	50
105	50
106	50
107	50
108	50
109	50
110	50
111	50
112	50
113	50
114	50
115	50
116	50
117	50
118	50
119	50
120	50
121	50
122	50
123	50
124	50
125	50
126	50
127	50
128	50
129	50
130	50
131	50
132	50
133	50
134	50
135	50
136	50
137	50
138	50
139	50
140	50
141	50
142	50
143	50
144	50
145	50
146	50
147	50
148	50
149	50
150	50
151	50
152	50
153	50
154	50
155	50
156	50
157	50
158	50
159	50
160	50
161	50
162	50
163	50
164	50
165	50
166	50
167	50
168	50
169	50
170	50
171	50
172	50
173	50
174	50
175	50
176	50
177	50
178	50
179	50
180	50
181	50
182	50
183	50
184	50
185	50
186	50
187	50
188	50
189	50
190	50
191	50
192	50
193	50
194	50
195	50
196	50
197	50
198	50
199	50
200	50
201	50
202	50
203	50
204	50
205	50
206	50
207	50
208	50
209	50
210	50
211	50
212	50
213	50
214	50
215	50
216	50
217	50
218	50
219	50
220	50
221	50
222	50
223	50
224	50
225	50
226	50
227	50
228	50
229	50
230	50
231	50
232	50
233	50
234	50
235	50
236	50
237	50
238	50
239	50
240	50
241	50
242	50
243	50
244	50
245	50
246	50
247	50
248	50
249	50
250	50
251	50
252	50
253	50
254	50
255	50
256	50
257	50
258	50
259	50
260	50
261	50
262	50
263	50
264	50
265	50
266	50
267	50
268	50
269	50
270	50
271	50
272	50
273	50
274	50
275	50
276	50
277	50
278	50
279	50
280	50
281	50
282	50
283	50
284	50
285	50
286	50
287	50
288	50
289	50
290	50
291	50
292	50
293	50
294	50
295	50
296	50
297	50
298	50
299	50
300	50
301	50
302	50
303	50
304	50
305	50
306	50
307	50
308	50
309	50
310	50
311	50
312	50
313	50
314	50
315	50
316	50
317	50
318	50
319	50
320	50
321	50
322	50
323	50
324	50
325	50
326	50
327	50
328	50
329	50
330	50
331	50
332	50
333	50
334	50
335	50
336	50
337	50
338	50
339	50
340	50
341	50
342	50
343	50
344	50
345	50
346	50
347	50
348	50
349	50
350	50
351	50
352	50
353	50
354	50
355	50
356	50
357	50
358	50
359	50
360	50
361	50
362	50
363	50
364	50
365	50
366	50
367	50
368	50
369	50
370	50
371	50
372	50
373	50
374	50
375	50
376	50
377	50
378	50
379	50
380	50
381	50
382	50
383	50
384	50
385	50
386	50
387	50
388	50
389	50
390	50
391	50
392	50
393	50
394	50
395	50
396	50
397	50
398	50
399	50
400	50
401	50
402	50
403	50
404	50
405	50
406	50
407	50
408	50
409	50
410	50
411	50
412	50
413	50
414	50
415	50
416	50
417	50
418	50
419	50
420	50
421	50
422	50
423	50
424	50
425	50
426	50
427	50
428	50
429	50
430	50
431	50
432	50
433	50
434	50
435	50
436	50
437	50
438	50
439	50
440	50
441	50
442	50
443	50
444	50
445	50
446	50
447	50
448	50
449	50
450	50
451	50
452	50
453	50
454	50
455	50
456	50
457	50
458	50
459	50
460	50
461	50
462	50
463	50
464	50
465	50
466	50
467	50
468	50
469	50
470	50
471	50
472	50
473	50
474	50
475	50
476	50
477	50
478	50
479	50
480	100
481	100
482	100
483	100
484	100
485	100
486	100
487	100
488	100
489	100
490	100
491	100
492	100
493	100
494	100
495	100
496	100
497	100
498	100
499	100
500	100
501	100
502	100
503	100
504	100
505	100
506	100
507	100
508	100
509	100
510	100
511	100
512	100
513	100
514	100
515	100
516	100
517	100
518	100
519	100
520	100
521	100
522	100
523	100
524	100
525	100
526	100
527	100
528	100
529	100
530	100
531	100
532	100
533	100
534	100
535	100
536	100
537	100
538	100
539	100
540	100
541	100
542	100
543	100
544	100
545	100
546	100
547	100
548	100
549	100
550	100
551	100
552	100
553	100
554	100
555	100
556	100
557	100
558	100
559	100
560	100
561	100
562	100
563	100
564	100
565	100
566	100
567	100
568	100
569	100
570	100
571	100
572	100
573	100
574	100
575	100
576	100
577	100
578	100
579	100
580	100
581	100
582	100
583	100
584	100
585	100
586	100
587	100
588	100
589	100
590	100
591	100
592	100
593	100
594	100
595	100
596	100
597	100
598	100
599	100
600	100
601	100
602	100
603	100
604	100
605	100
606	100
607	100
608	100
609	100
610	100
611	100
612	100
613	100
614	100
615	100
616	100
617	100
618	100
619	100
620	100
621	100
622	100
623	100
624	100
625	100
626	100
627	100
628	100
629	100
630	100
631	100
632	100
633	100
634	100
635	100
636	100
637	100
638	100
639	100
640	100
641	100
642	100
643	100
644	100
645	100
646	100
647	100
648	100
649	100
650	100
651	100
652	100
653	100
654	100
655	100
656	100
657	100
658	100
659	100
660	100
661	100
662	100
663	100
664	100
665	100
666	100
667	100
668	100
669	100
670	100
671	100
672	100
673	100
674	100
675	100
676	100
677	100
678	100
679	100
680	100
681	100
682	100
683	100
684	100
685	100
686	100
687	100
688	100
689	100
690	100
691	100
692	100
693	100
694	100
695	100
696	100
697	100
698	100
699	100
700	100
701	100
702	100
703	100
704	100
705	100
706	100
707	100
708	100
709	100
710	100
711	100
712	100
713	100
714	100
715	100
716	100
717	100
718	100
719	100
720	100
721	100
722	100
723	100
724	100
725	100
726	100
727	100
728	100
729	100
730	100
731	100
732	100
733	100
734	100
735	100
736	100
737	100
738	100
739	100
740	100
741	100
742	100
743	100
744	100
745	100
746	100
747	100
748	100
749	100
750	100
751	100
752	100
753	100
754	100
755	100
756	100
757	100
758	100
759	100
760	100
761	100
762	100
763	100
764	100
765	100
766	100
767	100
768	100
769	100
770	100
771	100
772	100
773	100
774	100
775	100
776	100
777	100
778	100
779	100
780	100
781	100
782	100
783	100
784	100
785	100
786	100
787	100
788	100
789	100
790	100
791	100
792	100
793	100
794	100
795	100
796	100
797	100
798	100
799	100
800	100
801	100
802	100
803	100
804	100
805	100
806	100
807	100
808	100
809	100
810	100
811	100
812	100
813	100
814	100
815	100
816	100
817	100
818	100
819	100
820	100
821	100
822	100
823	100
824	100
825	100
826	100
827	100
828	100
829	100
830	100
831	100
832	100
833	100
834	100
835	100
836	100
837	100
838	100
839	100
840	100
841	100
842	100
843	100
844	100
845	100
846	100
847	100
848	100
849	100
850	100
851	100
852	100
853	100
854	100
855	100
856	100
857	100
858	100
859	100
860	100
861	100
862	100
863	100
864	100
865	100
866	100
867	100
868	100
869	100
870	100
871	100
872	100
873	100
874	100
875	100
876	100
877	100
878	100
879	100
880	100
881	100
882	100
883	100
884	100
885	100
886	100
887	100
888	100
889	100
890	100
891	100
892	100
893	100
894	100
895	100
896	100
897	100
898	100
899	100
900	100
901	100
902	100
903	100
904	100
905	100
906	100
907	100
908	100
909	100
910	100
911	100
912	100
913	100
914	100
915	100
916	100
917	100
918	100
919	100
920	100
921	100
922	100
923	100
924	100
925	100
926	100
927	100
928	100
929	100
930	100
931	100
932	100
933	100
934	100
935	100
936	100
937	100
938	100
939	100
940	100
941	100
942	100
943	100
944	100
945	100
946	100
947	100
948	100
949	100
950	100
951	100
952	100
953	100
954	100
955	100
956	100
957	100
958	100
959	200
960	200
961	200
962	200
963	200
964	200
965	200
966	200
967	200
968	200
969	200
970	200
971	200
972	200
973	200
974	200
975	200
976	200
977	200
978	200
979	200
980	200
981	200
982	200
983	200
984	200
985	200
986	200
987	200
988	200
989	200
990	200
991	200
992	200
993	200
994	200
995	200
996	200
997	200
998	200
999	200
1000	200
1001	200
1002	200
1003	200
1004	200
1005	200
1006	200
1007	200
1008	200
1009	200
1010	200
1011	200
1012	200
1013	200
1014	200
1015	200
1016	200
1017	200
1018	200
1019	200
1020	200
1021	200
1022	200
1023	200
1024	200
1025	200
1026	200
1027	200
1028	200
1029	200
1030	200
1031	200
1032	200
1033	200
1034	200
1035	200
1036	200
1037	200
1038	200
1039	200
1040	200
1041	200
1042	200
1043	200
1044	200
1045	200
1046	200
1047	200
1048	200
1049	200
1050	200
1051	200
1052	200
1053	200
1054	200
1055	200
1056	200
1057	200
1058	200
1059	200
1060	200
1061	200
1062	200
1063	200
1064	200
1065	200
1066	200
1067	200
1068	200
1069	200
1070	200
1071	200
1072	200
1073	200
1074	200
1075	200
1076	200
1077	200
1078	200
1079	200
1080	200
1081	200
1082	200
1083	200
1084	200
1085	200
1086	200
1087	200
1088	200
1089	200
1090	200
1091	200
1092	200
1093	200
1094	200
1095	200
1096	200
1097	200
1098	200
1099	200
1100	200
1101	200
1102	200
1103	200
1104	200
1105	200
1106	200
1107	200
1108	200
1109	200
1110	200
1111	200
1112	200
1113	200
1114	200
1115	200
1116	200
1117	200
1118	200
1119	200
1120	200
1121	200
1122	200
1123	200
1124	200
1125	200
1126	200
1127	200
1128	200
1129	200
1130	200
1131	200
1132	200
1133	200
1134	200
1135	200
1136	200
1137	200
1138	200
1139	200
1140	200
1141	200
1142	200
1143	200
1144	200
1145	200
1146	200
1147	200
1148	200
1149	200
1150	200
1151	200
1152	200
1153	200
1154	200
1155	200
1156	200
1157	200
1158	200
1159	200
1160	200
1161	200
1162	200
1163	200
1164	200
1165	200
1166	200
1167	200
1168	200
1169	200
1170	200
1171	200
1172	200
1173	200
1174	200
1175	200
1176	200
1177	200
1178	200
1179	200
1180	200
1181	200
1182	200
1183	200
1184	200
1185	200
1186	200
1187	200
1188	200
1189	200
1190	200
1191	200
1192	200
1193	200
1194	200
1195	200
1196	200
1197	200
1198	200
1199	200
1200	200
1201	200
1202	200
1203	200
1204	200
1205	200
1206	200
1207	200
1208	200
1209	200
1210	200
1211	200
1212	200
1213	200
1214	200
1215	200
1216	200
1217	200
1218	200
1219	200
1220	200
1221	200
1222	200
1223	200
1224	200
1225	200
1226	200
1227	200
1228	200
1229	200
1230	200
1231	200
1232	200
1233	200
1234	200
1235	200
1236	200
1237	200
1238	200
1239	200
1240	200
1241	200
1242	200
1243	200
1244	200
1245	200
1246	200
1247	200
1248	200
1249	200
1250	200
1251	200
1252	200
1253	200
1254	200
1255	200
1256	200
1257	200
1258	200
1259	200
1260	200
1261	200
1262	200
1263	200
1264	200
1265	200
1266	200
1267	200
1268	200
1269	200
1270	200
1271	200
1272	200
1273	200
1274	200
1275	200
1276	200
1277	200
1278	200
1279	200
1280	200
1281	200
1282	200
1283	200
1284	200
1285	200
1286	200
1287	200
1288	200
1289	200
1290	200
1291	200
1292	200
1293	200
1294	200
1295	200
1296	200
1297	200
1298	200
1299	200
1300	200
1301	200
1302	200
1303	200
1304	200
1305	200
1306	200
1307	200
1308	200
1309	200
1310	200
1311	200
1312	200
1313	200
1314	200
1315	200
1316	200
1317	200
1318	200
1319	200
1320	200
1321	200
1322	200
1323	200
1324	200
1325	200
1326	200
1327	200
1328	200
1329	200
1330	200
1331	200
1332	200
1333	200
1334	200
1335	200
1336	200
1337	200
1338	200
1339	200
1340	200
1341	200
1342	200
1343	200
1344	200
1345	200
1346	200
1347	200
1348	200
1349	200
1350	200
1351	200
1352	200
1353	200
1354	200
1355	200
1356	200
1357	200
1358	200
1359	200
1360	200
1361	200
1362	200
1363	200
1364	200
1365	200
1366	200
1367	200
1368	200
1369	200
1370	200
1371	200
1372	200
1373	200
1374	200
1375	200
1376	200
1377	200
1378	200
1379	200
1380	200
1381	200
1382	200
1383	200
1384	200
1385	200
1386	200
1387	200
1388	200
1389	200
1390	200
1391	200
1392	200
1393	200
1394	200
1395	200
1396	200
1397	200
1398	200
1399	200
1400	200
1401	200
1402	200
1403	200
1404	200
1405	200
1406	200
1407	200
1408	200
1409	200
1410	200
1411	200
1412	200
1413	200
1414	200
1415	200
1416	200
1417	200
1418	200
1419	200
1420	200
1421	200
1422	200
1423	200
1424	200
1425	200
1426	200
1427	200
1428	200
1429	200
1430	200
1431	200
1432	200
1433	200
1434	200
1435	200
1436	200
1437	200
DEPOT_SECTION
1
EOF
